296,345
444,369
361,569
417,770
361,569
296,345
559,166
531,406
504,434
596,379
533,258
596,379
621,406
769,420
880,470
1166,563
1125,336
778,476
737,761
436,887
444,369
732,81
721,326
769,420
681,286
469,194
548,338
531,406
504,434
667,494
681,526
570,748
664,430
655,393
667,494
597,939
621,406
668,380
681,286
912,-48
975,257
880,470
841,487
761,446
787,460
814,474
1080,277
1125,336
1166,563
1093,705
814,474
778,476
885,806
737,761
761,446
548,338
